NAME = SAfile175,
TOURSIZE = 175,
LENGTH = 21419,
3,30,56,86,76,111,158,90,94,135,88,152,141,54,95,143,130,34,78,63,145,96,174,162,4,109,20,43,115,52,138,21,134,41,36,132,99,140,153,91,71,81,112,104,151,84,85,149,70,24,173,11,59,128,66,77,10,122,18,33,164,126,165,22,121,12,107,51,106,55,129,40,27,1,131,101,73,13,127,108,75,61,79,156,98,67,117,163,35,16,146,83,62,139,25,15,9,116,133,29,45,166,68,154,87,7,74,113,38,37,47,161,136,97,44,82,157,32,172,80,144,102,123,167,103,50,105,159,64,53,170,92,48,114,31,69,93,19,120,39,5,26,72,118,49,148,89,46,119,171,110,17,137,2,58,160,42,6,100,65,23,168,28,169,147,150,14,57,155,8,125,124,175,60,142